ssat_solver_solve2
#level: 2
Abc_NtkNodeNum(s->pNtk): 639  , BDD limit: 10240
Build BDD success
level 1: 5 element
Exist
level 0: 5 element
Random
c ssat solving in ABC
#var: 10
s SATISFIABLE
  > Upper bound = 1.000000e+00
  > Lower bound = 1.000000e+00
FINISHED CPU 0.04 MEM 46128 MAXMEM 46128 STALE 1 MAXMEM_RSS 4596
<time name="ALL">50</time>
real 0.63
user 0.14
sys 0.21
